AME : levi30_14
COMMENT : 30: 36x20 -city problem (levikoppenhol)
TYPE : TSP
DIMENSION : 30
EDGE_WEIGHT_TYPE : EUC_2D
NODE_COORD_SECTION
1 0 4
2 19 6
3 18 35
4 6 30
5 8 16
6 3 2
7 20 12
8 7 14
9 19 17
10 20 29
11 15 9
12 0 5
13 12 4
14 14 7
15 5 28
16 17 21
17 6 18
18 10 4
19 17 17
20 7 29
21 6 24
22 11 10
23 16 4
24 2 27
25 8 32
26 1 17
27 17 27
28 0 35
29 15 32
30 8 7
EOF